custcount = 100;
vehicount = 25;
capacity = 20000;

x = [40, 45, 45, 42, 42, 42, 40, 40, 38, 38, 35, 35, 25, 22, 22, 20, 20, 18, 15, 15, 30, 30, 28, 28, 25, 25, 25, 23, 23, 20, 20, 10, 10, 8, 8, 5, 5, 2, 0, 0, 35, 35, 33, 33, 32, 30, 30, 30, 28, 28, 26, 25, 25, 44, 42, 42, 40, 40, 38, 38, 35, 50, 50, 50, 48, 48, 47, 47, 45, 45, 95, 95, 53, 92, 53, 45, 90, 88, 88, 87, 85, 85, 75, 72, 70, 68, 66, 65, 65, 63, 60, 60, 67, 65, 65, 62, 60, 60, 58, 55, 55];
y = [50, 68, 70, 66, 68, 65, 69, 66, 68, 70, 66, 69, 85, 75, 85, 80, 85, 75, 75, 80, 50, 52, 52, 55, 50, 52, 55, 52, 55, 50, 55, 35, 40, 40, 45, 35, 45, 40, 40, 45, 30, 32, 32, 35, 30, 30, 32, 35, 30, 35, 32, 30, 35, 5, 10, 15, 5, 15, 5, 15, 5, 30, 35, 40, 30, 40, 35, 40, 30, 35, 30, 35, 30, 30, 35, 65, 35, 30, 35, 30, 25, 35, 55, 55, 58, 60, 55, 55, 60, 58, 55, 60, 85, 85, 82, 80, 80, 85, 75, 80, 85];
demand = [0, 1000, 3000, 1000, 1000, 1000, 2000, 2000, 2000, 1000, 1000, 1000, 2000, 3000, 1000, 4000, 4000, 2000, 2000, 1000, 1000, 2000, 2000, 1000, 1000, 4000, 1000, 1000, 2000, 1000, 1000, 2000, 3000, 4000, 2000, 1000, 1000, 2000, 3000, 2000, 1000, 1000, 2000, 1000, 1000, 1000, 3000, 1000, 1000, 1000, 1000, 1000, 1000, 2000, 4000, 1000, 3000, 4000, 3000, 1000, 2000, 1000, 2000, 5000, 1000, 1000, 1000, 1000, 1000, 1000, 3000, 2000, 1000, 1000, 5000, 2000, 1000, 1000, 2000, 1000, 1000, 3000, 2000, 1000, 2000, 3000, 1000, 2000, 3000, 1000, 1000, 1000, 2000, 4000, 1000, 3000, 1000, 3000, 2000, 1000, 2000];
ready = [0, 91200, 82500, 6500, 72700, 1500, 62100, 17000, 25500, 53400, 35700, 44800, 65200, 3000, 56700, 38400, 47500, 9900, 17900, 27800, 1000, 91400, 81200, 73200, 6500, 16900, 62200, 26100, 54600, 35800, 44900, 20000, 3100, 8700, 75100, 28300, 66500, 38300, 47900, 56700, 26400, 16600, 6800, 1600, 35900, 54100, 44800, 105400, 63200, 100100, 81500, 72500, 91200, 28600, 18600, 9500, 38500, 3500, 47100, 65100, 56200, 53100, 26200, 17100, 63200, 7600, 82600, 1200, 73400, 91600, 38700, 29300, 45000, 47800, 35300, 99700, 20300, 57400, 10900, 66800, 76900, 4700, 36900, 26500, 45800, 55500, 17300, 8500, 64500, 73700, 2000, 83600, 36800, 47500, 28500, 19600, 9500, 56100, 3000, 74300, 64700];
due = [123600, 96700, 87000, 14600, 78200, 6700, 70200, 22500, 32400, 60500, 41000, 50500, 72100, 9200, 62000, 42900, 52800, 14800, 25400, 34500, 7300, 96500, 88300, 77700, 14400, 22400, 70100, 31600, 59300, 40500, 50400, 23700, 10000, 15800, 81600, 34400, 71600, 43400, 52200, 62400, 32100, 23500, 14900, 8000, 41200, 60000, 50900, 112700, 69300, 106600, 88000, 78600, 96900, 34700, 25700, 15800, 43600, 8700, 53400, 74000, 62900, 61000, 31700, 21800, 69300, 12900, 87500, 7700, 77700, 96900, 45600, 36000, 50500, 55100, 41200, 106800, 26000, 64300, 17000, 73100, 82000, 12400, 42000, 33800, 52300, 61200, 23800, 14400, 70800, 80200, 8400, 88900, 44100, 51800, 33600, 23900, 15600, 62200, 8400, 82000, 72600];
service = [0, 9000, 9000, 9000, 9000, 9000, 9000, 9000, 9000, 9000, 9000, 9000, 9000, 9000, 9000, 9000, 9000, 9000, 9000, 9000, 9000, 9000, 9000, 9000, 9000, 9000, 9000, 9000, 9000, 9000, 9000, 9000, 9000, 9000, 9000, 9000, 9000, 9000, 9000, 9000, 9000, 9000, 9000, 9000, 9000, 9000, 9000, 9000, 9000, 9000, 9000, 9000, 9000, 9000, 9000, 9000, 9000, 9000, 9000, 9000, 9000, 9000, 9000, 9000, 9000, 9000, 9000, 9000, 9000, 9000, 9000, 9000, 9000, 9000, 9000, 9000, 9000, 9000, 9000, 9000, 9000, 9000, 9000, 9000, 9000, 9000, 9000, 9000, 9000, 9000, 9000, 9000, 9000, 9000, 9000, 9000, 9000, 9000, 9000, 9000, 9000];
