custcount = 25;
vehicount = 5;
capacity = 20000;

x = [40, 45, 45, 42, 42, 42, 40, 40, 38, 38, 35, 35, 25, 22, 22, 20, 20, 18, 15, 15, 30, 30, 28, 28, 25, 25];
y = [50, 68, 70, 66, 68, 65, 69, 66, 68, 70, 66, 69, 85, 75, 85, 80, 85, 75, 75, 80, 50, 52, 52, 55, 50, 52];
demand = [0, 1000, 3000, 1000, 1000, 1000, 2000, 2000, 2000, 1000, 1000, 1000, 2000, 3000, 1000, 4000, 4000, 2000, 2000, 1000, 1000, 2000, 2000, 1000, 1000, 4000];
ready = [0, 91200, 82500, 6500, 72700, 1500, 62100, 17000, 25500, 53400, 35700, 44800, 65200, 3000, 56700, 38400, 47500, 9900, 17900, 27800, 1000, 91400, 81200, 73200, 6500, 16900];
due = [123600, 96700, 87000, 14600, 78200, 6700, 70200, 22500, 32400, 60500, 41000, 50500, 72100, 9200, 62000, 42900, 52800, 14800, 25400, 34500, 7300, 96500, 88300, 77700, 14400, 22400];
service = [0, 9000, 9000, 9000, 9000, 9000, 9000, 9000, 9000, 9000, 9000, 9000, 9000, 9000, 9000, 9000, 9000, 9000, 9000, 9000, 9000, 9000, 9000, 9000, 9000, 9000];
