custcount = 25;
vehicount = 5;
capacity = 20000;

x = [35, 41, 35, 55, 55, 15, 25, 20, 10, 55, 30, 20, 50, 30, 15, 30, 10, 5, 20, 15, 45, 45, 45, 55, 65, 65];
y = [35, 49, 17, 45, 20, 30, 30, 50, 43, 60, 60, 65, 35, 25, 10, 5, 20, 30, 40, 60, 65, 20, 10, 5, 35, 20];
demand = [0, 1000, 700, 1300, 1900, 2600, 300, 500, 900, 1600, 1600, 1200, 1900, 2300, 2000, 800, 1900, 200, 1200, 1700, 900, 1100, 1800, 2900, 300, 600];
ready = [0, 16100, 5000, 11600, 14900, 3400, 9900, 8100, 9500, 9700, 12400, 6700, 6300, 15900, 3200, 6100, 7500, 15700, 8700, 7600, 12600, 6200, 9700, 6800, 15300, 17200];
due = [23000, 17100, 6000, 12600, 15900, 4400, 10900, 9100, 10500, 10700, 13400, 7700, 7300, 16900, 4200, 7100, 8500, 16700, 9700, 8600, 13600, 7200, 10700, 7800, 16300, 18200];
service = [0, 1000, 1000, 1000, 1000, 1000, 1000, 1000, 1000, 1000, 1000, 1000, 1000, 1000, 1000, 1000, 1000, 1000, 1000, 1000, 1000, 1000, 1000, 1000, 1000, 1000];
