custcount = 25;
vehicount = 5;
capacity = 20000;

x = [40, 25, 22, 22, 20, 20, 18, 15, 15, 10, 10, 8, 8, 5, 5, 2, 0, 0, 44, 42, 42, 40, 40, 38, 38, 35];
y = [50, 85, 75, 85, 80, 85, 75, 75, 80, 35, 40, 40, 45, 35, 45, 40, 40, 45, 5, 10, 15, 5, 15, 5, 15, 5];
demand = [0, 2000, 3000, 1000, 4000, 2000, 2000, 2000, 1000, 2000, 3000, 4000, 2000, 1000, 1000, 2000, 2000, 2000, 2000, 4000, 1000, 1000, 4000, 3000, 1000, 2000];
ready = [0, 14500, 5000, 10900, 14100, 4100, 9500, 7900, 9100, 9100, 11900, 5900, 6400, 14200, 3500, 5800, 7200, 14900, 8700, 7200, 12200, 6700, 9200, 6500, 14800, 15400];
due = [24000, 17500, 8000, 13900, 17100, 7100, 12500, 10900, 12100, 12100, 14900, 8900, 9400, 17200, 6500, 8800, 10200, 17900, 11700, 10200, 15200, 9700, 12200, 9500, 17800, 18400];
service = [0, 1000, 1000, 1000, 1000, 1000, 1000, 1000, 1000, 1000, 1000, 1000, 1000, 1000, 1000, 1000, 1000, 1000, 1000, 1000, 1000, 1000, 1000, 1000, 1000, 1000];
