custcount = 25;
vehicount = 5;
capacity = 70000;

x = [40, 52, 45, 62, 60, 42, 16, 58, 34, 28, 35, 35, 25, 22, 22, 20, 20, 18, 15, 15, 30, 30, 28, 14, 25, 22];
y = [50, 75, 70, 69, 66, 65, 42, 70, 60, 70, 66, 69, 85, 75, 85, 80, 85, 75, 75, 80, 50, 56, 52, 66, 50, 66];
demand = [0, 1000, 3000, 1000, 1000, 1000, 2000, 2000, 2000, 1000, 1000, 1000, 2000, 3000, 1000, 4000, 4000, 2000, 2000, 1000, 1000, 2000, 2000, 1000, 1000, 4000];
ready = [0, 31100, 21300, 116700, 126100, 2500, 49700, 107300, 288700, 260100, 279100, 269800, 211900, 240500, 202600, 221600, 193400, 231100, 174200, 183700, 1000, 298300, 2200, 164300, 11600, 250400];
due = [339000, 47100, 37300, 132700, 142100, 18500, 65700, 123300, 304700, 276100, 295100, 285800, 227900, 256500, 218600, 237600, 209400, 247100, 190200, 199700, 17000, 314300, 18200, 180300, 27600, 266400];
service = [0, 9000, 9000, 9000, 9000, 9000, 9000, 9000, 9000, 9000, 9000, 9000, 9000, 9000, 9000, 9000, 9000, 9000, 9000, 9000, 9000, 9000, 9000, 9000, 9000, 9000];
