custcount = 50;
vehicount = 15;
capacity = 70000;

x = [40, 52, 45, 62, 60, 42, 16, 58, 34, 28, 35, 35, 25, 22, 22, 20, 20, 18, 15, 15, 30, 30, 28, 14, 25, 22, 8, 23, 4, 20, 20, 10, 10, 8, 8, 5, 5, 2, 0, 0, 36, 35, 33, 33, 32, 30, 34, 30, 36, 48, 26];
y = [50, 75, 70, 69, 66, 65, 42, 70, 60, 70, 66, 69, 85, 75, 85, 80, 85, 75, 75, 80, 50, 56, 52, 66, 50, 66, 62, 52, 55, 50, 55, 35, 40, 40, 45, 35, 45, 40, 40, 45, 18, 32, 32, 35, 20, 30, 25, 35, 40, 20, 32];
demand = [0, 1000, 3000, 1000, 1000, 1000, 2000, 2000, 2000, 1000, 1000, 1000, 2000, 3000, 1000, 4000, 4000, 2000, 2000, 1000, 1000, 2000, 2000, 1000, 1000, 4000, 1000, 1000, 2000, 1000, 1000, 2000, 3000, 4000, 2000, 1000, 1000, 2000, 3000, 2000, 1000, 1000, 2000, 1000, 1000, 1000, 3000, 1000, 1000, 1000, 1000];
ready = [0, 31100, 21300, 116700, 126100, 2500, 49700, 107300, 288700, 260100, 279100, 269800, 211900, 240500, 202600, 221600, 193400, 231100, 174200, 183700, 1000, 298300, 2200, 164300, 11600, 250400, 154500, 20900, 144700, 39800, 30300, 78100, 59300, 68500, 134600, 87600, 125300, 97100, 106300, 115800, 181900, 275800, 266600, 257300, 191300, 210500, 200900, 248000, 285600, 96700, 229200];
due = [339000, 47100, 37300, 132700, 142100, 18500, 65700, 123300, 304700, 276100, 295100, 285800, 227900, 256500, 218600, 237600, 209400, 247100, 190200, 199700, 17000, 314300, 18200, 180300, 27600, 266400, 170500, 36900, 160700, 55800, 46300, 94100, 75300, 84500, 150600, 103600, 141300, 113100, 122300, 131800, 197900, 291800, 282600, 273300, 207300, 226500, 216900, 264000, 301600, 112700, 245200];
service = [0, 9000, 9000, 9000, 9000, 9000, 9000, 9000, 9000, 9000, 9000, 9000, 9000, 9000, 9000, 9000, 9000, 9000, 9000, 9000, 9000, 9000, 9000, 9000, 9000, 9000, 9000, 9000, 9000, 9000, 9000, 9000, 9000, 9000, 9000, 9000, 9000, 9000, 9000, 9000, 9000, 9000, 9000, 9000, 9000, 9000, 9000, 9000, 9000, 9000, 9000];
