custcount = 25;
vehicount = 5;
capacity = 100000;

x = [35, 41, 35, 55, 55, 15, 25, 20, 10, 55, 30, 20, 50, 30, 15, 30, 10, 5, 20, 15, 45, 45, 45, 55, 65, 65];
y = [35, 49, 17, 45, 20, 30, 30, 50, 43, 60, 60, 65, 35, 25, 10, 5, 20, 30, 40, 60, 65, 20, 10, 5, 35, 20];
demand = [0, 1000, 700, 1300, 1900, 2600, 300, 500, 900, 1600, 1600, 1200, 1900, 2300, 2000, 800, 1900, 200, 1200, 1700, 900, 1100, 1800, 2900, 300, 600];
ready = [0, 70700, 14300, 52700, 67800, 3400, 41500, 33100, 40400, 40000, 57700, 20600, 22800, 69000, 3200, 17500, 27200, 73300, 37700, 26900, 58100, 21400, 40900, 20600, 70400, 81700];
due = [100000, 84800, 28200, 58400, 80100, 20900, 51400, 41000, 48100, 49700, 63200, 32500, 34500, 82700, 24300, 30000, 37300, 87000, 43400, 37800, 66600, 33100, 49400, 32500, 84700, 95600];
service = [0, 1000, 1000, 1000, 1000, 1000, 1000, 1000, 1000, 1000, 1000, 1000, 1000, 1000, 1000, 1000, 1000, 1000, 1000, 1000, 1000, 1000, 1000, 1000, 1000, 1000];
