custcount = 25;
vehicount = 5;
capacity = 100000;

x = [40, 25, 22, 22, 20, 20, 18, 15, 15, 10, 10, 8, 8, 5, 5, 2, 0, 0, 44, 42, 42, 40, 40, 38, 38, 35];
y = [50, 85, 75, 85, 80, 85, 75, 75, 80, 35, 40, 40, 45, 35, 45, 40, 40, 45, 5, 10, 15, 5, 15, 5, 15, 5];
demand = [0, 2000, 3000, 1000, 4000, 2000, 2000, 2000, 1000, 2000, 3000, 4000, 2000, 1000, 1000, 2000, 2000, 2000, 2000, 4000, 1000, 1000, 4000, 3000, 1000, 2000];
ready = [0, 67300, 15200, 47100, 64400, 7300, 38800, 30000, 36700, 37100, 51900, 19500, 22300, 65300, 3500, 17400, 25500, 70300, 33500, 25400, 53700, 21500, 37500, 20100, 68100, 78400];
due = [96000, 79300, 27200, 59100, 76400, 19300, 50800, 42000, 48700, 49100, 63900, 31500, 34300, 77300, 15500, 29400, 37500, 82300, 45500, 37400, 65700, 33500, 49500, 32100, 80100, 90400];
service = [0, 1000, 1000, 1000, 1000, 1000, 1000, 1000, 1000, 1000, 1000, 1000, 1000, 1000, 1000, 1000, 1000, 1000, 1000, 1000, 1000, 1000, 1000, 1000, 1000, 1000];
