custcount = 20;
vehicount = 5;
capacity = 200;

x = [0, 1229, 812, 1064, 878, 680, -636, 603, 614, 428, -515, 526, -54, -219, -417, -219, 362, 197, 131, -131, 54];
y = [0, -1000, -1212, -889, -800, -589, 478, 667, -689, -366, 166, -489, 366, 255, 111, -155, -233, -122, -44, 88, 11];
demand = [0, 20, 10, 25, 25, 35, 15, 55, 80, 30, 40, 10, 45, 50, 60, 35, 12, 70, 20, 90, 15];
ready = [0, 9960, 4980, 4980, 9960, 4980, 9960, 9960, 4980, 4980, 4980, 9960, 9960, 9960, 9960, 14940, 9960, 9960, 4980, 4980, 9960];
due = [59760, 19920, 14940, 19920, 19920, 14940, 19920, 29880, 29880, 14940, 14940, 39840, 24900, 24900, 34860, 29880, 39840, 34860, 24900, 29880, 39840];
service = [0, 830, 830, 1245, 830, 1245, 830, 1245, 1660, 1245, 1245, 830, 1245, 1245, 1660, 1245, 830, 1660, 830, 1660, 830];
