custcount = 100;
vehicount = 25;
capacity = 20000;

x = [35, 41, 35, 55, 55, 15, 25, 20, 10, 55, 30, 20, 50, 30, 15, 30, 10, 5, 20, 15, 45, 45, 45, 55, 65, 65, 45, 35, 41, 64, 40, 31, 35, 53, 65, 63, 2, 20, 5, 60, 40, 42, 24, 23, 11, 6, 2, 8, 13, 6, 47, 49, 27, 37, 57, 63, 53, 32, 36, 21, 17, 12, 24, 27, 15, 62, 49, 67, 56, 37, 37, 57, 47, 44, 46, 49, 49, 53, 61, 57, 56, 55, 15, 14, 11, 16, 4, 28, 26, 26, 31, 15, 22, 18, 26, 25, 22, 25, 19, 20, 18];
y = [35, 49, 17, 45, 20, 30, 30, 50, 43, 60, 60, 65, 35, 25, 10, 5, 20, 30, 40, 60, 65, 20, 10, 5, 35, 20, 30, 40, 37, 42, 60, 52, 69, 52, 55, 65, 60, 20, 5, 12, 25, 7, 12, 3, 14, 38, 48, 56, 52, 68, 47, 58, 43, 31, 29, 23, 12, 12, 26, 24, 34, 24, 58, 69, 77, 77, 73, 5, 39, 47, 56, 68, 16, 17, 13, 11, 42, 43, 52, 48, 37, 54, 47, 37, 31, 22, 18, 18, 52, 35, 67, 19, 22, 24, 27, 24, 27, 21, 21, 26, 18];
demand = [0, 1000, 700, 1300, 1900, 2600, 300, 500, 900, 1600, 1600, 1200, 1900, 2300, 2000, 800, 1900, 200, 1200, 1700, 900, 1100, 1800, 2900, 300, 600, 1700, 1600, 1600, 900, 2100, 2700, 2300, 1100, 1400, 800, 500, 800, 1600, 3100, 900, 500, 500, 700, 1800, 1600, 100, 2700, 3600, 3000, 1300, 1000, 900, 1400, 1800, 200, 600, 700, 1800, 2800, 300, 1300, 1900, 1000, 900, 2000, 2500, 2500, 3600, 600, 500, 1500, 2500, 900, 800, 1800, 1300, 1400, 300, 2300, 600, 2600, 1600, 1100, 700, 4100, 3500, 2600, 900, 1500, 300, 100, 200, 2200, 2700, 2000, 1100, 1200, 1000, 900, 1700];
ready = [0, 16100, 5000, 11600, 14900, 3400, 9900, 8100, 9500, 9700, 12400, 6700, 6300, 15900, 3200, 6100, 7500, 15700, 8700, 7600, 12600, 6200, 9700, 6800, 15300, 17200, 13200, 3700, 3900, 6300, 7100, 5000, 14100, 3700, 11700, 14300, 4100, 13400, 8300, 4400, 8500, 9700, 3100, 13200, 6900, 3200, 11700, 5100, 16500, 10800, 12400, 8800, 5200, 9500, 14000, 13600, 13000, 10100, 20000, 1800, 16200, 7600, 5800, 3400, 7300, 5100, 12700, 8300, 14200, 5000, 18200, 7700, 3500, 7800, 14900, 6900, 7300, 17900, 9600, 9200, 18200, 9400, 5500, 4400, 10100, 9100, 9400, 9300, 7400, 17600, 9500, 16000, 1800, 18800, 10000, 3900, 13500, 13300, 5800, 8300, 18500];
due = [23000, 17100, 6000, 12600, 15900, 4400, 10900, 9100, 10500, 10700, 13400, 7700, 7300, 16900, 4200, 7100, 8500, 16700, 9700, 8600, 13600, 7200, 10700, 7800, 16300, 18200, 14200, 4700, 4900, 7300, 8100, 6000, 15100, 4700, 12700, 15300, 5100, 14400, 9300, 5400, 9500, 10700, 4100, 14200, 7900, 4200, 12700, 6100, 17500, 11800, 13400, 9800, 6200, 10500, 15000, 14600, 14000, 11100, 21000, 2800, 17200, 8600, 6800, 4400, 8300, 6100, 13700, 9300, 15200, 6000, 19200, 8700, 4500, 8800, 15900, 7900, 8300, 18900, 10600, 10200, 19200, 10400, 6500, 5400, 11100, 10100, 10400, 10300, 8400, 18600, 10500, 17000, 2800, 19800, 11000, 4900, 14500, 14300, 6800, 9300, 19500];
service = [0, 1000, 1000, 1000, 1000, 1000, 1000, 1000, 1000, 1000, 1000, 1000, 1000, 1000, 1000, 1000, 1000, 1000, 1000, 1000, 1000, 1000, 1000, 1000, 1000, 1000, 1000, 1000, 1000, 1000, 1000, 1000, 1000, 1000, 1000, 1000, 1000, 1000, 1000, 1000, 1000, 1000, 1000, 1000, 1000, 1000, 1000, 1000, 1000, 1000, 1000, 1000, 1000, 1000, 1000, 1000, 1000, 1000, 1000, 1000, 1000, 1000, 1000, 1000, 1000, 1000, 1000, 1000, 1000, 1000, 1000, 1000, 1000, 1000, 1000, 1000, 1000, 1000, 1000, 1000, 1000, 1000, 1000, 1000, 1000, 1000, 1000, 1000, 1000, 1000, 1000, 1000, 1000, 1000, 1000, 1000, 1000, 1000, 1000, 1000, 1000];
