custcount = 100;
vehicount = 25;
capacity = 20000;

x = [40, 25, 22, 22, 20, 20, 18, 15, 15, 10, 10, 8, 8, 5, 5, 2, 0, 0, 44, 42, 42, 40, 40, 38, 38, 35, 95, 95, 92, 90, 88, 88, 87, 85, 85, 67, 65, 65, 62, 60, 60, 58, 55, 55, 55, 20, 18, 2, 42, 42, 72, 55, 25, 20, 55, 30, 50, 30, 15, 10, 15, 45, 65, 65, 45, 35, 41, 64, 40, 31, 35, 65, 63, 2, 20, 5, 60, 23, 8, 6, 47, 49, 27, 37, 57, 63, 21, 12, 24, 67, 37, 49, 53, 61, 57, 56, 55, 4, 26, 26, 31];
y = [50, 85, 75, 85, 80, 85, 75, 75, 80, 35, 40, 40, 45, 35, 45, 40, 40, 45, 5, 10, 15, 5, 15, 5, 15, 5, 30, 35, 30, 35, 30, 35, 30, 25, 35, 85, 85, 82, 80, 80, 85, 75, 80, 85, 82, 82, 80, 45, 5, 12, 35, 20, 30, 50, 60, 60, 35, 25, 10, 20, 60, 65, 35, 20, 30, 40, 37, 42, 60, 52, 69, 55, 65, 60, 20, 5, 12, 3, 56, 68, 47, 58, 43, 31, 29, 23, 24, 24, 58, 5, 47, 42, 43, 52, 48, 37, 54, 18, 52, 35, 67];
demand = [0, 2000, 3000, 1000, 4000, 2000, 2000, 2000, 1000, 2000, 3000, 4000, 2000, 1000, 1000, 2000, 2000, 2000, 2000, 4000, 1000, 1000, 4000, 3000, 1000, 2000, 3000, 2000, 1000, 1000, 1000, 2000, 1000, 1000, 3000, 2000, 4000, 1000, 3000, 1000, 3000, 2000, 1000, 2000, 1000, 1000, 1000, 1000, 1000, 1000, 3000, 1900, 300, 500, 1600, 1600, 1900, 2300, 2000, 1900, 1700, 900, 300, 600, 1700, 1600, 1600, 900, 2100, 2700, 2300, 1400, 800, 500, 800, 1600, 3100, 700, 2700, 3000, 1300, 1000, 900, 1400, 1800, 200, 2800, 1300, 1900, 2500, 600, 1300, 1400, 300, 2300, 600, 2600, 3500, 900, 1500, 300];
ready = [0, 14500, 5000, 10900, 14100, 4100, 9500, 7900, 9100, 9100, 11900, 5900, 6400, 14200, 3500, 5800, 7200, 14900, 8700, 7200, 12200, 6700, 9200, 6500, 14800, 15400, 11500, 6200, 6200, 6700, 7400, 6100, 13100, 5100, 11100, 13900, 4300, 12400, 7500, 3700, 8500, 9200, 3300, 12800, 6400, 3700, 11300, 4500, 15100, 10400, 11600, 8300, 5200, 9100, 13900, 14000, 13000, 9600, 15200, 4200, 15500, 6600, 5200, 3900, 5300, 1100, 13300, 7000, 14400, 4100, 18000, 6500, 3000, 7700, 14100, 7400, 7500, 15000, 9000, 8900, 19200, 8600, 4200, 3500, 9600, 8700, 8700, 9000, 6700, 14400, 8600, 16700, 1400, 17800, 9500, 3400, 13200, 12000, 4600, 7700, 18000];
due = [24000, 17500, 8000, 13900, 17100, 7100, 12500, 10900, 12100, 12100, 14900, 8900, 9400, 17200, 6500, 8800, 10200, 17900, 11700, 10200, 15200, 9700, 12200, 9500, 17800, 18400, 14500, 9200, 9200, 9700, 10400, 9100, 16100, 8100, 14100, 16900, 7300, 15400, 10500, 6700, 11500, 12200, 6300, 15800, 9400, 6700, 14300, 7500, 18100, 13400, 14600, 11300, 8200, 12100, 16900, 17000, 16000, 12600, 18200, 7200, 18500, 9600, 8200, 6900, 8300, 4100, 16300, 10000, 17400, 7100, 21000, 9500, 6000, 10700, 17100, 10400, 10500, 18000, 12000, 11900, 22200, 11600, 7200, 6500, 12600, 11700, 11700, 12000, 9700, 17400, 11600, 19700, 4400, 20800, 12500, 6400, 16200, 15000, 7600, 10700, 21000];
service = [0, 1000, 1000, 1000, 1000, 1000, 1000, 1000, 1000, 1000, 1000, 1000, 1000, 1000, 1000, 1000, 1000, 1000, 1000, 1000, 1000, 1000, 1000, 1000, 1000, 1000, 1000, 1000, 1000, 1000, 1000, 1000, 1000, 1000, 1000, 1000, 1000, 1000, 1000, 1000, 1000, 1000, 1000, 1000, 1000, 1000, 1000, 1000, 1000, 1000, 1000, 1000, 1000, 1000, 1000, 1000, 1000, 1000, 1000, 1000, 1000, 1000, 1000, 1000, 1000, 1000, 1000, 1000, 1000, 1000, 1000, 1000, 1000, 1000, 1000, 1000, 1000, 1000, 1000, 1000, 1000, 1000, 1000, 1000, 1000, 1000, 1000, 1000, 1000, 1000, 1000, 1000, 1000, 1000, 1000, 1000, 1000, 1000, 1000, 1000, 1000];
